&CONTROL
    calculation     = 'scf'
    restart_mode    = 'from_scratch'
    prefix          = 'pwscf'
    tstress         = .true.
    tprnfor         = .true.
    pseudo_dir      = '/ocean/projects/dmr180040p/zhuangj/pseudo'
    outdir          = './scratch'
    etot_conv_thr   = 1.0D-6
    forc_conv_thr   = 1.0D-5
/

&SYSTEM
    nat             = 40
    ntyp            = 4
    ecutwfc         = 40.0
    ecutrho = 180.0
    ibrav           = 0
    occupations='smearing', smearing='fd', degauss = 0.002 ! 300K
    nspin = 2 ,
    starting_magnetization(1)  = 0.25 ,
    starting_magnetization(2)  = 0.0 ,
    starting_magnetization(3)  = 0.0 ,
    starting_magnetization(4)  = 0.0 ,
    starting_ns_eigenvalue(1,1,1) = 0.99 ,
    starting_ns_eigenvalue(2,1,1) = 0.99 ,
    starting_ns_eigenvalue(3,1,1) = 0.99 ,
    starting_ns_eigenvalue(4,1,1) = 0.99 ,
    starting_ns_eigenvalue(5,1,1) = 0.99 ,
    starting_ns_eigenvalue(1,2,1) = 0.01 ,
    starting_ns_eigenvalue(2,2,1) = 0.01 ,
    starting_ns_eigenvalue(3,2,1) = 0.99 ,
    starting_ns_eigenvalue(4,2,1) = 0.01 ,
    starting_ns_eigenvalue(5,2,1) = 0.01 ,
/

&ELECTRONS
    diagonalization = 'david'
    mixing_mode     = 'plain'
    mixing_beta     = 0.3
    conv_thr        = 1.0d-8
    electron_maxstep = 1000
/

ATOMIC_SPECIES
    Fe  1.00  Fe.pz-spn-kjpaw_psl.1.0.0.UPF
    Mg  1.00  Mg.pz-spn-kjpaw_psl.1.0.0.UPF
    Si  1.00  Si_PON4.vdb
    O  1.00  O.pz-n-kjpaw_psl.1.0.0.UPF

HUBBARD (ortho-atomic)
  U Fe-3d 3.1

K_POINTS (automatic)
    4  4  2   1   1   1

CELL_PARAMETERS (angstrom)
6.69599802 0.00000000 0.00000000
0.20833311 6.69543130 0.00000000
0.00000000 0.00000000 6.70971366

ATOMIC_POSITIONS (crystal)
Fe            0.0219340707        0.0155092496        0.2500000000
Mg            0.5362247771        0.0248651010        0.2500000000
Mg           -0.0228559045       -0.0369825437       -0.2500000000
Mg           -0.5371424717       -0.0201895241       -0.2500000000
Mg            0.5221246016       -0.4597244879        0.2500000000
Mg            1.0379895696       -0.4795080710        0.2500000000
Mg            0.4774321835       -0.5412187487       -0.2500000000
Mg           -0.0370292067       -0.5230702346       -0.2500000000
Si            0.2470301345        0.2497852775       -0.0002582939
Si            0.2519566903       -0.2523594615       -0.0021623403
Si            0.2470301345        0.2497852775        0.5002582939
Si            0.2519566903       -0.2523594615        0.5021623403
Si            0.7497873137       -0.2499838881       -0.0011095269
Si            0.7501197566       -0.7472921201        0.0004564150
Si            0.7497873137       -0.2499838881        0.5011095269
Si            0.7501197566       -0.7472921201        0.4995435850
O             0.1964093077        0.0018858517       -0.0554282197
O             0.4981276487       -0.1950581773        0.0545260392
O             0.5020267893        0.1958398168       -0.0527483792
O             0.8017186004       -0.0005849888        0.0532537707
O             0.1964093077        0.0018858517        0.5554282197
O             0.4981276487       -0.1950581773        0.4454739608
O             0.5020267893        0.1958398168        0.5527483792
O             0.8017186004       -0.0005849888        0.4467462293
O             0.2809478685        0.1786336521        0.2500000000
O             0.1888293637       -0.2237342589        0.2500000000
O            -0.2858881338       -0.1780540526       -0.2500000000
O             0.3230383195       -0.2869317234       -0.2500000000
O             0.6941885843       -0.4953733984       -0.0549579793
O             0.9958782026       -0.6863266098        0.0472143219
O             1.0033600092       -0.3020110248       -0.0554356714
O             1.3058945356       -0.5042465804        0.0531249652
O             0.6941885843       -0.4953733984        0.5549579793
O             0.9958782026       -0.6863266098        0.4527856781
O             1.0033600092       -0.3020110248        0.5554356714
O             1.3058945356       -0.5042465804        0.4468750348
O             0.7881957407       -0.3181432821        0.2500000000
O             0.6791736294       -0.7115706562        0.2500000000
O             0.2145719583       -0.6810346194       -0.2500000000
O             0.8179021004       -0.7856929138        -0.2500000000